NAME: random_10_3
TYPE: TSP
COMMENT: random_10_3
DIMENSION: 10
EDGE_WEIGHT_TYPE: EUC_2D
NODE_COORD_SECTION
1 32 351
2 167 18
3 426 265
4 381 452
5 290 471
6 12 230
7 308 306
8 395 484
9 44 479
10 266 448
